  2   0   0   0   0   0   0   0   0   0   0   0   0   0   0   0   0   0   0   0   0   0   0   0   0   0   0   0   0   0   0   0   0   0   0   0   0   0   0   0   0   0   0   0   0   0   0   0   0   0   0   0   0   0   0   0   0   0   0   0   0   0   0   0   0   0   0   0   0   0   0   0   0   0   0   0   0   0   0   0   0   0   0   0   0   0   0   0   0   0   0   0   0   0   0   0   0   0   0   0   0   0   0   0   0   0   0   0   0   0   0   0   0   0   0   0   0   0   0   0   0   0   0   0   0   0   0   0   0   0   0   0   0   0   0   0   0   0   0   0   0   0   0   0   0   0   0   0   0   0   0   0   0   0   0   0   0   0   0   0   0   0   0   0   0   0   0   0   0   0   0   0   0   0   0   0   0   0   0   0   0   0   0   0   0   0   0   0   0   0   0   0   0   0   0   0   0   0   0   0   0   0   0   0   0   0   0   0   0   0   0   0   0   0   0   0   0   0   0   0   0   0   0   0   0   0   0   0   0   0   0   0   0   0   0   0   0   0   0   0   0   0   0   0   0   0   0   0   0   0   0   0   0   0   0   0   0   0   0   0   0   0   0   0   0   0   0   0   0   0   0   0   0   0   0   0   0   0   0   0   0   0   0   0   0   0   0   0   0   0   0   0   0   0   0   0   0   0   0   0   0   0   0   0   0   0   0   0   0   0   0   0   0   0   0   0   0   0   0   0   0   0   0   0   0   0   0   0   0   0   0   0   0   0   0   0   0   0   0   0   0   0   0   0   0   0   0   0   0   0   0   0   0   0   0   0   0   0   0   0   0   0   0   0   0   0   0   0   0   0   0   0   0   0   0   0   0   0   0   0   0   0   0   0   0   0   0   0   0   0   0   0   0   0   0   0   0   0   0   0   0   0   0   0   0   0   0   0   0   0   0   0   0   0   0   0   0   0   0   0   0   0   0   0   0   0   0   0   0   0   0   0   0   0   0   0   0   0   0   0   0   0   0   0   0   0   0   0   0   0   0   0   0   0   0   0   0   0   0   0   0   0   0   0   0   0   0   0   0   0   0   0   0   0   0   0   0   0   0   0   0   0   0   0   0   0   0   0   0   0   0   0   0   0   0   0   0   0   0   0   0   0   0   0   0   0   0   0   0   0   0   0   0   0   0   0   0   0   0   0   0   0   0   0   0   0   0   0   0   0   0   0   0   0   0   0   0   0   0   0   0   0   0   0   0   0   0   0   0   0   0   0   0   0   0   0   0   0   0   0   0   0   0   0   0   0   0   0   0   0   0   0   0   0   0   0   0   0   0   0   0   0   0   0   0   0   0   0   0   0   0   0   0   0   0   0   0   0   0   0   0   0   0   0   0   0   0   0   0   0   0   0   0   0   0   0   0   0   0   0   0   0   0   0   0   0   0   0   0   0   0   0   0   0   0   0   0   0   0   0   0   0   0   0   0   0   0   0   0   0   0   0   0   0   0   0   0   0   0   0   0   0   0   0   0   0   0   0   0   0   0   0   0   0   0   0   0   0   0   0   0   0   0   0   0   0   0   0   0   0   0   0   0   0   0   0   0   0   0   0   0   0   0   0   0   0   0   0   0   0   0   0   0   0   0   0   0   0   0   0   0   0   0   0   0   0   0   0   0   0   0   0   0   0   0   0   0   0   0   0   0   0   0   0   0   0   0   0   0   0   0   0   0   0   0   0   0   0   0   0   0   0   0   0   0   0   0   0   0   0   0   0   0   0   0   0   0   0   0   0   0   0   0   0   0   0   0   0   0   0   0   0   0   0   0   0   0   0   0   0   0   0   0   0   0   0   0   0   0   0   0   0   0   0   0   0   0   0   0   0   0   0   0   0   0   0   0   0   0   0   0   0   0   0   0   0   0   0   0   0   0   0   0   0   0   0   0   0   0   0   0   0   0   0   0   0   0   0   0   0   0   0   0   0   0   0   0   0   0   0   0   0   0   0   0   0   0   0   0   0   0   0   0   0   0   0   0   0   0   0   0   0   0   0   0   0   0   0   0   0   0   0   0   0   0   0   0   0   0   0   0   0   0   0   0   0   0   0   0   0   0   0   0   0   0   0   0   0   0   0   0   0   0   0   0   0   0   0   0   0   0   0   0   0   0   0   0   0   0   0   0   0   0   0   0   0   0   0   0   0   0   0   0   0   0   0   0   0   0   0   0   0   0   0   0   0   0   0   0   0   0   0   0   0   0   0   0   0   0   0   0   0   0   0   0   0   0   0   0   0 
REMAINING SPACE:      88
ACCUMULATED PRIORITY: 198
EXECUTION TIME:       0.000125900
QTY PRI VAL
[2]  99 206
[0]  98 211
[0] 100 220
[0]  98 217
[0]  92 204
[0]  92 205
[0]  99 223
[0]  90 207
[0]  98 226
[0]  90 208
[0]  90 210
[0]  95 222
[0]  97 227
[0]  90 215
[0]  86 206
[0]  97 237
[0]  90 220
[0]  90 221
[0]  84 207
[0]  97 240
[0]  92 228
[0] 100 248
[0]  97 241
[0]  89 222
[0] 100 251
[0]  88 221
[0]  98 250
[0]  92 237
[0]  89 232
[0]  87 227
[0]  94 248
[0]  81 214
[0]  82 217
[0]  81 215
[0]  76 202
[0]  98 265
[0]  87 236
[0]  75 204
[0]  75 205
[0]  87 239
[0]  78 215
[0]  76 210
[0]  94 260
[0]  74 205
[0]  91 253
[0]  96 268
[0]  92 258
[0]  85 241
[0]  98 279
[0]  85 243
[0]  81 232
[0]  96 276
[0]  82 236
[0]  94 272
[0]  77 223
[0] 100 290
[0]  72 209
[0]  85 247
[0]  93 271
[0]  92 270
[0]  89 262
[0] 100 296
[0]  95 282
[0]  94 283
[0]  82 248
[0]  88 269
[0]  70 214
[0]  98 301
[0]  94 289
[0]  72 222
[0]  85 263
[0]  73 226
[0]  72 224
[0]  70 219
[0] 100 313
[0]  91 285
[0]  97 305
[0]  82 258
[0] 100 317
[0]  93 296
[0]  87 277
[0]  80 255
[0]  91 291
[0]  88 282
[0]  94 302
[0]  97 312
[0]  77 248
[0]  99 320
[0]  97 315
[0]  73 238
[0]  84 274
[0]  93 304
[0] 100 328
[0]  94 309
[0]  90 296
[0]  88 290
[0]  74 244
[0]  75 249
[0]  65 216
[0]  83 277
[0]  74 247
[0]  65 217
[0]  78 261
[0]  72 241
[0]  96 322
[0]  74 249
[0]  95 320
[0]  77 260
[0]  77 261
[0]  93 316
[0]  97 330
[0]  71 242
[0]  89 304
[0]  74 253
[0]  78 268
[0]  80 275
[0]  93 320
[0]  83 286
[0]  73 252
[0]  81 280
[0]  93 324
[0]  88 307
[0]  99 346
[0]  88 309
[0]  86 302
[0]  74 260
[0]  72 253
[0]  91 320
[0]  65 229
[0]  82 289
[0]  61 215
[0]  80 283
[0]  95 337
[0]  96 341
[0]  80 285
[0]  81 290
[0]  79 283
[0]  71 255
[0]  76 273
[0]  96 347
[0]  78 282
[0]  95 346
[0]  99 361
[0]  91 332
[0]  81 296
[0]  56 205
[0]  65 238
[0]  95 348
[0]  82 301
[0]  86 316
[0]  90 332
[0]  87 321
[0]  58 214
[0]  90 333
[0]  77 285
[0]  91 337
[0]  62 230
[0]  57 212
[0]  57 212
[0]  93 346
[0]  54 201
[0]  59 220
[0]  71 265
[0]  94 353
[0]  76 286
[0]  94 354
[0]  77 290
[0]  73 275
[0]  76 287
[0]  72 272
[0]  61 231
[0]  62 236
[0]  67 256
[0]  56 214
[0]  78 299
[0]  86 330
[0]  62 240
[0]  54 210
[0]  93 364
[0]  94 368
[0]  85 334
[0]  91 359
[0]  69 273
[0]  74 293
[0]  58 230
[0]  88 349
[0]  78 310
[0]  98 390
[0]  63 251
[0]  93 371
[0]  61 244
[0]  97 388
[0]  79 316
[0]  54 216
[0]  55 222
[0] 100 404
[0]  91 370
[0]  99 403
[0]  57 233
[0]  84 344
[0]  59 242
[0]  56 230
[0]  84 345
[0]  73 300
[0]  71 292
[0]  53 219
[0]  80 331
[0]  77 320
[0]  95 395
[0]  88 366
[0]  56 233
[0]  49 204
[0]  87 363
[0]  78 326
[0]  78 326
[0]  49 205
[0]  68 285
[0]  78 327
[0]  91 383
[0]  78 330
[0]  73 309
[0]  73 309
[0]  67 284
[0]  99 420
[0]  56 238
[0]  83 355
[0]  97 415
[0] 100 428
[0]  87 373
[0]  71 305
[0]  79 340
[0]  91 392
[0]  89 384
[0]  93 402
[0]  61 264
[0]  73 316
[0] 100 433
[0]  98 425
[0]  59 256
[0]  96 417
[0]  57 248
[0]  62 270
[0]  84 366
[0]  87 380
[0]  76 332
[0]  53 232
[0]  98 429
[0]  84 369
[0]  94 415
[0]  73 323
[0]  78 346
[0]  81 360
[0]  89 396
[0]  80 356
[0]  70 312
[0]  77 344
[0]  56 251
[0]  96 431
[0]  59 265
[0]  94 423
[0]  79 356
[0]  93 420
[0]  94 425
[0]  99 448
[0]  55 249
[0]  58 263
[0]  88 400
[0]  73 333
[0]  55 251
[0]  74 339
[0]  84 385
[0]  85 390
[0]  80 368
[0]  97 447
[0]  64 295
[0]  94 434
[0]  72 333
[0]  93 431
[0] 100 464
[0]  59 274
[0]  71 330
[0]  43 200
[0]  67 312
[0]  91 424
[0]  54 252
[0]  99 463
[0]  64 300
[0]  77 361
[0]  65 306
[0]  63 297
[0]  71 335
[0]  61 288
[0]  65 307
[0]  95 449
[0]  70 332
[0]  92 437
[0]  57 272
[0]  94 450
[0]  95 455
[0]  96 460
[0]  84 403
[0]  77 370
[0]  93 447
[0]  86 414
[0]  67 323
[0]  93 449
[0]  99 478
[0]  84 406
[0]  92 445
[0]  51 248
[0]  89 434
[0]  90 439
[0]  95 464
[0]  46 225
[0]  79 387
[0]  61 299
[0]  76 373
[0]  67 329
[0]  90 443
[0]  43 212
[0]  57 283
[0]  91 452
[0]  64 318
[0]  43 214
[0]  46 229
[0]  97 483
[0]  78 389
[0]  43 215
[0]  65 325
[0]  90 451
[0]  88 441
[0]  81 407
[0]  69 348
[0]  89 449
[0]  66 333
[0]  84 424
[0]  82 414
[0]  91 460
[0]  87 441
[0]  85 431
[0]  83 421
[0]  82 416
[0]  76 386
[0]  76 386
[0]  63 320
[0]  92 468
[0]  41 209
[0]  69 353
[0]  90 461
[0]  68 349
[0]  75 385
[0]  67 345
[0]  73 376
[0]  97 500
[0]  81 419
[0]  83 430
[0]  69 358
[0]  68 353
[0]  60 312
[0]  93 484
[0]  86 448
[0]  88 459
[0]  74 386
[0]  78 407
[0]  68 355
[0]  62 324
[0]  65 340
[0]  69 361
[0]  71 373
[0]  92 485
[0]  55 290
[0]  72 380
[0]  49 259
[0]  74 392
[0]  53 281
[0]  84 446
[0]  68 362
[0]  79 421
[0]  39 208
[0]  74 395
[0]  50 267
[0]  87 465
[0]  66 353
[0]  63 339
[0]  80 431
[0]  65 351
[0]  55 297
[0]  62 335
[0]  74 400
[0]  70 379
[0]  84 456
[0]  65 353
[0]  85 462
[0]  42 229
[0]  45 246
[0]  87 476
[0]  91 498
[0]  74 406
[0]  79 434
[0]  71 391
[0]  44 243
[0]  78 431
[0]  66 365
[0]  55 305
[0]  42 233
[0]  62 345
[0]  44 245
[0]  82 457
[0]  78 435
[0]  83 463
[0]  50 279
[0]  46 257
[0]  49 274
[0]  49 275
[0]  81 456
[0]  52 293
[0]  76 429
[0]  74 418
[0]  83 469
[0]  85 482
[0]  68 386
[0]  80 455
[0]  58 330
[0]  46 262
[0]  60 343
[0]  39 223
[0]  66 378
[0]  56 321
[0]  85 488
[0]  42 242
[0]  85 490
[0]  52 300
[0]  58 335
[0]  86 497
[0]  77 446
[0]  35 203
[0]  72 419
[0]  84 490
[0]  38 222
[0]  83 485
[0]  40 235
[0]  73 430
[0]  56 330
[0]  74 437
[0]  84 497
[0]  80 474
[0]  57 338
[0]  64 380
[0]  65 386
[0]  75 446
[0]  82 488
[0]  73 436
[0]  52 311
[0]  57 341
[0]  74 445
[0]  36 217
[0]  65 392
[0]  81 489
[0]  75 453
[0]  81 490
[0]  40 242
[0]  80 484
[0]  56 339
[0]  34 206
[0]  67 406
[0]  47 285
[0]  77 469
[0]  81 494
[0]  80 488
[0]  76 464
[0]  74 453
[0]  39 239
[0]  58 357
[0]  52 321
[0]  50 309
[0]  70 433
[0]  75 465
[0]  49 305
[0]  66 411
[0]  76 475
[0]  47 294
[0]  58 363
[0]  54 338
[0]  75 470
[0]  77 484
[0]  55 346
[0]  74 466
[0]  76 482
[0]  37 235
[0]  43 275
[0]  33 212
[0]  42 271
[0]  61 394
[0]  47 304
[0]  49 318
[0]  62 403
[0]  44 287
[0]  47 307
[0]  55 360
[0]  71 465
[0]  63 413
[0]  34 223
[0]  50 328
[0]  66 433
[0]  74 486
[0]  63 414
[0]  50 329
[0]  54 356
[0]  67 443
[0]  49 324
[0]  63 417
[0]  60 398
[0]  50 332
[0]  48 319
[0]  63 419
[0]  69 459
[0]  69 461
[0]  42 281
[0]  48 322
[0]  68 457
[0]  61 410
[0]  41 276
[0]  68 458
[0]  61 411
[0]  63 425
[0]  30 203
[0]  61 413
[0]  55 373
[0]  37 251
[0]  43 292
[0]  66 450
[0]  71 485
[0]  67 459
[0]  37 254
[0]  61 419
[0]  36 248
[0]  48 332
[0]  61 422
[0]  49 339
[0]  54 374
[0]  41 284
[0]  72 499
[0]  56 389
[0]  56 389
[0]  39 271
[0]  47 327
[0]  51 356
[0]  50 350
[0]  38 266
[0]  61 428
[0]  50 351
[0]  49 344
[0]  47 330
[0]  65 457
[0]  61 429
[0]  53 374
[0]  64 454
[0]  61 433
[0]  61 435
[0]  31 222
[0]  40 287
[0]  49 352
[0]  68 489
[0]  56 403
[0]  61 439
[0]  50 360
[0]  55 399
[0]  65 473
[0]  38 277
[0]  33 241
[0]  51 373
[0]  52 381
[0]  64 469
[0]  51 374
[0]  67 492
[0]  40 294
[0]  59 436
[0]  41 303
[0]  41 306
[0]  49 366
[0]  51 382
[0]  55 412
[0]  52 390
[0]  58 436
[0]  45 339
[0]  30 226
[0]  63 476
[0]  36 274
[0]  40 306
[0]  30 230
[0]  62 476
[0]  56 431
[0]  57 439
[0]  43 332
[0]  41 317
[0]  46 357
[0]  53 412
[0]  64 498
[0]  41 320
[0]  47 367
[0]  59 461
[0]  34 266
[0]  62 487
[0]  30 236
[0]  59 465
[0]  57 450
[0]  57 450
[0]  35 277
[0]  59 467
[0]  62 491
[0]  26 206
[0]  43 341
[0]  31 246
[0]  44 350
[0]  47 375
[0]  61 488
[0]  56 448
[0]  36 288
[0]  56 449
[0]  54 434
[0]  56 454
[0]  46 373
[0]  55 446
[0]  42 341
[0]  31 252
[0]  54 440
[0]  48 392
[0]  40 327
[0]  39 319
[0]  48 393
[0]  53 434
[0]  36 296
[0]  25 206
[0]  54 445
[0]  37 305
[0]  43 355
[0]  39 322
[0]  54 448
[0]  49 408
[0]  60 500
[0]  59 492
[0]  35 293
[0]  43 361
[0]  51 429
[0]  38 320
[0]  45 380
[0]  53 448
[0]  57 482
[0]  53 449
[0]  47 401
[0]  51 439
[0]  52 448
[0]  49 423
[0]  39 338
[0]  47 408
[0]  57 495
[0]  49 428
[0]  24 210
[0]  52 455
[0]  37 324
[0]  51 447
[0]  56 491
[0]  44 386
[0]  44 387
[0]  37 326
[0]  42 371
[0]  56 496
[0]  49 434
[0]  40 355
[0]  42 373
[0]  47 419
[0]  55 491
[0]  55 492
[0]  52 467
[0]  55 494
[0]  47 423
[0]  26 234
[0]  37 333
[0]  31 280
[0]  44 398
[0]  32 290
[0]  30 272
[0]  38 347
[0]  51 466
[0]  33 302
[0]  32 293
[0]  54 495
[0]  29 266
[0]  43 395
[0]  48 441
[0]  38 350
[0]  45 416
[0]  50 463
[0]  38 352
[0]  25 232
[0]  47 438
[0]  53 494
[0]  46 429
[0]  32 299
[0]  44 412
[0]  48 453
[0]  36 342
[0]  47 447
[0]  39 373
[0]  48 461
[0]  28 269
[0]  49 471
[0]  46 444
[0]  29 280
[0]  48 464
[0]  28 271
[0]  42 408
[0]  36 350
[0]  32 312
[0]  42 412
[0]  37 363
[0]  32 314
[0]  48 472
[0]  50 493
[0]  39 386
[0]  46 456
[0]  25 249
[0]  39 389
[0]  45 453
[0]  44 447
[0]  21 214
[0]  35 357
[0]  39 398
[0]  30 308
[0]  45 463
[0]  42 433
[0]  27 280
[0]  41 427
[0]  24 250
[0]  25 261
[0]  25 261
[0]  36 378
[0]  19 201
[0]  19 201
[0]  44 469
[0]  41 438
[0]  40 429
[0]  33 354
[0]  35 376
[0]  22 237
[0]  40 431
[0]  36 388
[0]  42 456
[0]  22 239
[0]  37 403
[0]  40 437
[0]  45 492
[0]  34 372
[0]  24 265
[0]  22 243
[0]  39 431
[0]  29 321
[0]  40 443
[0]  24 266
[0]  31 344
[0]  41 455
[0]  40 446
[0]  28 313
[0]  29 325
[0]  42 477
[0]  42 477
[0]  22 250
[0]  39 444
[0]  41 469
[0]  42 482
[0]  28 324
[0]  42 488
[0]  40 469
[0]  27 317
[0]  42 498
[0]  41 487
[0]  40 476
[0]  41 496
[0]  40 484
[0]  27 327
[0]  27 327
[0]  28 340
[0]  34 414
[0]  35 428
[0]  35 428
[0]  22 270
[0]  22 271
[0]  20 247
[0]  19 235
[0]  23 285
[0]  31 390
[0]  29 365
[0]  21 265
[0]  30 379
[0]  20 253
[0]  38 481
[0]  25 319
[0]  38 486
[0]  22 283
[0]  28 361
[0]  31 401
[0]  32 414
[0]  35 453
[0]  24 311
[0]  32 415
[0]  25 325
[0]  36 468
[0]  34 443
[0]  38 496
[0]  21 275
[0]  28 367
[0]  34 446
[0]  34 446
[0]  27 356
[0]  18 238
[0]  34 450
[0]  25 331
[0]  26 350
[0]  19 256
[0]  33 445
[0]  35 472
[0]  20 270
[0]  26 352
[0]  34 461
[0]  21 285
[0]  33 448
[0]  31 422
[0]  30 409
[0]  30 410
[0]  22 303
[0]  24 331
[0]  23 318
[0]  32 444
[0]  26 361
[0]  32 446
[0]  35 488
[0]  30 420
[0]  22 309
[0]  30 432
[0]  16 231
[0]  20 289
[0]  30 434
[0]  31 451
[0]  25 366
[0]  30 443
[0]  28 414
[0]  33 493
[0]  32 481
[0]  32 482
[0]  30 452
[0]  22 332
[0]  28 424
[0]  27 409
[0]  17 259
[0]  31 475
[0]  20 307
[0]  32 492
[0]  15 231
[0]  32 494
[0]  26 403
[0]  30 470
[0]  25 396
[0]  27 428
[0]  21 333
[0]  27 429
[0]  13 207
[0]  24 384
[0]  13 209
[0]  17 275
[0]  24 389
[0]  24 391
[0]  14 229
[0]  27 452
[0]  24 403
[0]  21 354
[0]  25 422
[0]  27 466
[0]  16 278
[0]  19 331
[0]  26 453
[0]  25 436
[0]  14 245
[0]  24 422
[0]  17 299
[0]  21 374
[0]  20 357
[0]  21 375
[0]  27 484
[0]  22 395
[0]  17 306
[0]  13 234
[0]  24 435
[0]  15 273
[0]  22 403
[0]  26 479
[0]  24 444
[0]  18 333
[0]  20 370
[0]  14 260
[0]  19 353
[0]  20 373
[0]  11 206
[0]  12 225
[0]  18 339
[0]  21 396
[0]  16 303
[0]  23 440
[0]  23 440
[0]  19 364
[0]  19 364
[0]  24 460
[0]  24 465
[0]  24 466
[0]  17 331
[0]  17 333
[0]  17 335
[0]  22 435
[0]  22 440
[0]  18 361
[0]  20 403
[0]  15 303
[0]  13 264
[0]  14 290
[0]  15 312
[0]  19 396
[0]  19 404
[0]  16 345
[0]  18 395
[0]  16 352
[0]  19 418
[0]  21 465
[0]  20 448
[0]  21 471
[0]  22 500
[0]  21 479
[0]  16 368
[0]  16 372
[0]  11 257
[0]  21 494
[0]  15 355
[0]  14 332
[0]  14 333
[0]  15 357
[0]  17 407
[0]  13 316
[0]  15 365
[0]  19 466
[0]  20 492
[0]  20 495
[0]  13 322
[0]  20 499
[0]  10 250
[0]  15 378
[0]  16 404
[0]  11 287
[0]  10 261
[0]  12 314
[0]  18 474
[0]  16 425
[0]  15 399
[0]  14 375
[0]  16 429
[0]  14 376
[0]  16 433
[0]  13 352
[0]  18 490
[0]  12 331
[0]  15 416
[0]  14 394
[0]  14 396
[0]  16 458
[0]  15 445
[0]  11 330
[0]  16 482
[0]  12 362
[0]  16 483
[0]  12 365
[0]  14 426
[0]  15 462
[0]  10 315
[0]  15 475
[0]  15 476
[0]  13 422
[0]  13 426
[0]  10 331
[0]  13 432
[0]  13 433
[0]  14 476
[0]  13 446
[0]  12 416
[0]  11 382
[0]  10 356
[0]  12 428
[0]  12 445
[0]  12 450
[0]  13 496
[0]  10 389
[0]  11 433
[0]  11 444
[0]  11 499
